projected/problems_b25_r0_d7_m100_s666/_DIMACS/b25_d7_r0_s666_060.cnf
p cnf 215 328 25
c p show 1 2 3 4 5 6 7 8 9 10 11 12 13 14 15 16 17 18 19 20 21 22 23 24 25
-26 -1 0
-26 -18 0
-27 20 -25 0
-28 27 26 0
-29 -20 0
-29 -9 0
-30 23 5 0
-31 30 29 0
-32 -23 0
-32 -5 0
-33 20 9 0
-34 33 32 0
-35 34 0
-35 31 0
-36 35 0
-36 28 0
-37 -1 0
-37 16 0
-38 -14 0
-38 -11 0
-39 38 0
-39 37 0
-40 -25 -17 0
-41 -17 -15 0
-42 41 0
-42 40 0
-43 42 39 0
-44 25 0
-44 17 0
-45 17 0
-45 15 0
-46 45 44 0
-47 1 -16 0
-48 14 11 0
-49 48 47 0
-50 49 46 0
-51 50 0
-51 43 0
-52 51 36 0
-53 46 0
-53 49 0
-54 39 0
-54 42 0
-55 54 53 0
-56 1 18 0
-57 -20 0
-57 25 0
-58 57 0
-58 56 0
-59 32 0
-59 33 0
-60 29 0
-60 30 0
-61 60 59 0
-62 61 58 0
-63 62 55 0
-64 63 0
-64 52 0
-65 19 18 0
-66 -8 -18 0
-67 66 65 0
-68 3 -24 0
-69 9 0
-69 -11 0
-70 11 0
-70 -9 0
-71 70 69 0
-72 71 0
-72 68 0
-73 72 67 0
-74 -3 0
-74 24 0
-75 -9 11 0
-76 -11 9 0
-77 76 0
-77 75 0
-78 77 74 0
-79 -19 0
-79 -18 0
-80 8 0
-80 18 0
-81 80 0
-81 79 0
-82 81 78 0
-83 82 0
-83 73 0
-84 -22 0
-84 -15 0
-85 3 0
-86 85 0
-86 84 0
-87 14 0
-87 -16 0
-88 16 0
-88 -12 0
-89 88 87 0
-90 89 0
-90 86 0
-91 90 0
-91 83 0
-92 91 0
-92 64 0
-93 -4 -12 0
-94 -20 -13 0
-95 94 93 0
-96 14 20 0
-97 22 -2 0
-98 97 96 0
-99 98 0
-99 95 0
-100 -6 -5 0
-101 -8 0
-101 -20 0
-102 101 0
-102 100 0
-103 19 -7 0
-104 56 103 0
-105 104 102 0
-106 105 0
-106 99 0
-107 -5 21 0
-108 -17 0
-108 -22 0
-109 108 0
-109 107 0
-110 22 0
-110 7 0
-111 18 3 0
-112 111 0
-112 110 0
-113 112 0
-113 109 0
-114 -15 0
-114 -5 0
-115 -2 8 0
-116 -8 2 0
-117 116 0
-117 115 0
-118 117 114 0
-119 -19 0
-119 18 0
-120 -22 1 0
-121 120 119 0
-122 121 118 0
-123 19 -18 0
-124 22 0
-124 -1 0
-125 124 0
-125 123 0
-126 15 5 0
-127 2 0
-127 -8 0
-128 8 0
-128 -2 0
-129 128 127 0
-130 129 0
-130 126 0
-131 130 125 0
-132 131 0
-132 122 0
-133 132 0
-133 113 0
-134 133 0
-134 106 0
-135 134 92 0
-136 -19 0
-137 3 13 0
-138 137 0
-138 136 0
-139 -19 0
-139 9 0
-140 -7 0
-140 -10 0
-141 140 139 0
-142 141 0
-142 138 0
-143 -6 -4 0
-144 -12 0
-144 -21 0
-145 144 143 0
-146 25 0
-146 -18 0
-147 -6 0
-147 -24 0
-148 147 146 0
-149 6 24 0
-150 -25 18 0
-151 150 149 0
-152 151 0
-152 148 0
-153 152 145 0
-154 153 142 0
-155 4 -22 0
-156 2 0
-156 -2 0
-157 156 0
-158 157 155 0
-159 -2 2 0
-160 159 0
-161 -4 0
-161 22 0
-162 161 160 0
-163 162 0
-163 158 0
-164 25 18 0
-165 -23 0
-165 15 0
-166 165 164 0
-167 166 163 0
-168 -22 16 0
-169 -7 0
-169 -20 0
-170 169 168 0
-171 2 0
-171 16 0
-172 21 0
-172 7 0
-173 172 171 0
-174 -21 -7 0
-175 -2 -16 0
-176 175 174 0
-177 176 0
-177 173 0
-178 177 0
-178 170 0
-179 178 167 0
-180 179 0
-180 154 0
-181 24 0
-181 12 0
-182 -12 0
-182 -24 0
-183 182 181 0
-184 14 13 0
-185 184 183 0
-186 -14 0
-187 20 0
-187 -11 0
-188 187 186 0
-189 188 185 0
-190 4 19 0
-191 15 0
-191 -16 0
-192 191 0
-192 190 0
-193 7 0
-193 23 0
-194 -8 0
-194 23 0
-195 194 0
-195 193 0
-196 195 0
-196 192 0
-197 196 0
-197 189 0
-198 -16 -9 0
-199 -6 -10 0
-200 199 198 0
-201 23 0
-201 -2 0
-202 201 0
-202 165 0
-203 202 200 0
-204 -21 5 0
-205 -21 0
-205 -11 0
-206 205 0
-206 204 0
-207 11 20 0
-208 -20 -11 0
-209 208 0
-209 207 0
-210 -4 0
-210 16 0
-211 210 209 0
-212 211 0
-212 206 0
-213 212 203 0
-214 213 197 0
-215 214 0
-215 180 0
215 135 0
-44 -40 0
-40 -44 0
-45 -41 0
-41 -45 0
-42 -46 0
-46 -42 0
-47 -37 0
-38 -48 0
-48 -38 0
-49 -39 0
-39 -49 0
-51 -55 0
-55 -51 0
-56 -26 0
-57 -27 0
-58 -28 0
-28 -58 0
-32 -30 0
-33 -29 0
-29 -33 0
-35 -61 0
-36 -62 0
-68 -74 0
-74 -68 0
-77 -71 0
-78 -72 0
-65 -79 0
-79 -65 0
-80 -66 0
-81 -67 0
-67 -81 0
-123 -119 0
-120 -124 0
-124 -120 0
-125 -121 0
-126 -114 0
-114 -126 0
-117 -129 0
-118 -130 0
-149 -147 0
-150 -146 0
-146 -150 0
-160 -157 0
-155 -161 0
-174 -172 0
-171 -175 0
