projected/problems_b25_r0_d7_m100_s666/b25_d7_r0_s666_060.smt2
(set-logic QF_UF)
(declare-fun A0 () Bool)
(declare-fun A1 () Bool)
(declare-fun A2 () Bool)
(declare-fun A3 () Bool)
(declare-fun A4 () Bool)
(declare-fun A5 () Bool)
(declare-fun A6 () Bool)
(declare-fun A7 () Bool)
(declare-fun A8 () Bool)
(declare-fun A9 () Bool)
(declare-fun A10 () Bool)
(declare-fun A11 () Bool)
(declare-fun A12 () Bool)
(declare-fun A13 () Bool)
(declare-fun A14 () Bool)
(declare-fun A15 () Bool)
(declare-fun A16 () Bool)
(declare-fun A17 () Bool)
(declare-fun A18 () Bool)
(declare-fun A19 () Bool)
(declare-fun A20 () Bool)
(declare-fun A21 () Bool)
(declare-fun A22 () Bool)
(declare-fun A23 () Bool)
(declare-fun A24 () Bool)
(assert (let ((.def_0 (and A24 A16))) (let ((.def_1 (not .def_0))) (let ((.def_2 (and A16 A14))) (let ((.def_3 (not .def_2))) (let ((.def_4 (and .def_3 .def_1))) (let ((.def_5 (not .def_4))) (let ((.def_6 (not A15))) (let ((.def_7 (or A0 .def_6))) (let ((.def_8 (not A10))) (let ((.def_9 (not A13))) (let ((.def_10 (and .def_9 .def_8))) (let ((.def_11 (not .def_10))) (let ((.def_12 (or .def_11 .def_7))) (let ((.def_13 (not .def_12))) (let ((.def_14 (= .def_13 .def_5))) (let ((.def_15 (not .def_14))) (let ((.def_16 (or A0 A17))) (let ((.def_17 (not A19))) (let ((.def_18 (and .def_17 A24))) (let ((.def_19 (and .def_18 .def_16))) (let ((.def_20 (not .def_19))) (let ((.def_21 (not A4))) (let ((.def_22 (not A22))) (let ((.def_23 (and .def_22 .def_21))) (let ((.def_24 (or A19 A8))) (let ((.def_25 (not .def_24))) (let ((.def_26 (= .def_25 .def_23))) (let ((.def_27 (and .def_26 .def_20))) (let ((.def_28 (= .def_27 .def_15))) (let ((.def_29 (not A23))) (let ((.def_30 (or A2 .def_29))) (let ((.def_31 (not .def_30))) (let ((.def_32 (= A10 A8))) (let ((.def_33 (or .def_32 .def_31))) (let ((.def_34 (or A18 A17))) (let ((.def_35 (not .def_34))) (let ((.def_36 (and A7 A17))) (let ((.def_37 (and .def_36 .def_35))) (let ((.def_38 (not .def_37))) (let ((.def_39 (= .def_38 .def_33))) (let ((.def_40 (not .def_39))) (let ((.def_41 (not A14))) (let ((.def_42 (not A21))) (let ((.def_43 (and .def_42 .def_41))) (let ((.def_44 (and A2 A2))) (let ((.def_45 (and .def_44 .def_43))) (let ((.def_46 (or .def_9 A15))) (let ((.def_47 (or .def_6 A11))) (let ((.def_48 (and .def_47 .def_46))) (let ((.def_49 (not .def_48))) (let ((.def_50 (and .def_49 .def_45))) (let ((.def_51 (not .def_50))) (let ((.def_52 (or .def_51 .def_40))) (let ((.def_53 (not .def_52))) (let ((.def_54 (and .def_53 .def_28))) (let ((.def_55 (not .def_54))) (let ((.def_56 (and A3 A11))) (let ((.def_57 (not A12))) (let ((.def_58 (or .def_17 .def_57))) (let ((.def_59 (not .def_58))) (let ((.def_60 (and .def_59 .def_56))) (let ((.def_61 (and .def_9 .def_17))) (let ((.def_62 (not .def_61))) (let ((.def_63 (not A1))) (let ((.def_64 (or A21 .def_63))) (let ((.def_65 (or .def_64 .def_62))) (let ((.def_66 (not .def_65))) (let ((.def_67 (or .def_66 .def_60))) (let ((.def_68 (and A5 A4))) (let ((.def_69 (not .def_68))) (let ((.def_70 (not A7))) (let ((.def_71 (and .def_70 .def_17))) (let ((.def_72 (and .def_71 .def_69))) (let ((.def_73 (not .def_72))) (let ((.def_74 (not A18))) (let ((.def_75 (and .def_74 A6))) (let ((.def_76 (not A17))) (let ((.def_77 (not A0))) (let ((.def_78 (and .def_77 .def_76))) (let ((.def_79 (and .def_78 .def_75))) (let ((.def_80 (and .def_79 .def_73))) (let ((.def_81 (or .def_80 .def_67))) (let ((.def_82 (not A20))) (let ((.def_83 (and A4 .def_82))) (let ((.def_84 (or A16 A21))) (let ((.def_85 (or .def_84 .def_83))) (let ((.def_86 (not .def_85))) (let ((.def_87 (and A21 A6))) (let ((.def_88 (not .def_87))) (let ((.def_89 (or A17 A2))) (let ((.def_90 (not .def_89))) (let ((.def_91 (or .def_90 .def_88))) (let ((.def_92 (not .def_91))) (let ((.def_93 (and .def_92 .def_86))) (let ((.def_94 (not .def_93))) (let ((.def_95 (or A18 .def_76))) (let ((.def_96 (or .def_42 A0))) (let ((.def_97 (not .def_96))) (let ((.def_98 (and .def_97 .def_95))) (let ((.def_99 (or A14 A4))) (let ((.def_100 (not .def_99))) (let ((.def_101 (= A7 A1))) (let ((.def_102 (or .def_101 .def_100))) (let ((.def_103 (= .def_102 .def_98))) (let ((.def_104 (not .def_103))) (let ((.def_105 (or .def_104 .def_94))) (let ((.def_106 (or .def_105 .def_81))) (let ((.def_107 (and .def_106 .def_55))) (let ((.def_108 (and .def_74 .def_74))) (let ((.def_109 (not .def_108))) (let ((.def_110 (or A2 A12))) (let ((.def_111 (not .def_110))) (let ((.def_112 (or .def_111 .def_109))) (let ((.def_113 (not .def_112))) (let ((.def_114 (and .def_74 A8))) (let ((.def_115 (not A9))) (let ((.def_116 (not A6))) (let ((.def_117 (and .def_116 .def_115))) (let ((.def_118 (or .def_117 .def_114))) (let ((.def_119 (and .def_118 .def_113))) (let ((.def_120 (not A3))) (let ((.def_121 (not A5))) (let ((.def_122 (or .def_121 .def_120))) (let ((.def_123 (not A11))) (let ((.def_124 (and .def_123 .def_82))) (let ((.def_125 (or .def_124 .def_122))) (let ((.def_126 (not .def_125))) (let ((.def_127 (or A5 A23))) (let ((.def_128 (not A24))) (let ((.def_129 (or .def_128 A17))) (let ((.def_130 (not .def_129))) (let ((.def_131 (= .def_130 .def_127))) (let ((.def_132 (not .def_131))) (let ((.def_133 (and .def_132 .def_126))) (let ((.def_134 (not .def_133))) (let ((.def_135 (or .def_134 .def_119))) (let ((.def_136 (= A1 A1))) (let ((.def_137 (or A3 .def_42))) (let ((.def_138 (= .def_137 .def_136))) (let ((.def_139 (and .def_128 .def_76))) (let ((.def_140 (and .def_22 A14))) (let ((.def_141 (not .def_140))) (let ((.def_142 (and .def_141 .def_139))) (let ((.def_143 (not .def_142))) (let ((.def_144 (or .def_143 .def_138))) (let ((.def_145 (not .def_144))) (let ((.def_146 (or .def_42 A15))) (let ((.def_147 (not .def_146))) (let ((.def_148 (or A6 A19))) (let ((.def_149 (and .def_148 .def_147))) (let ((.def_150 (not .def_149))) (let ((.def_151 (or .def_82 .def_116))) (let ((.def_152 (and A1 A15))) (let ((.def_153 (= .def_152 .def_151))) (let ((.def_154 (and .def_153 .def_150))) (let ((.def_155 (not .def_154))) (let ((.def_156 (and .def_155 .def_145))) (let ((.def_157 (not .def_156))) (let ((.def_158 (and .def_157 .def_135))) (let ((.def_159 (not .def_158))) (let ((.def_160 (= .def_123 A23))) (let ((.def_161 (and .def_9 .def_57))) (let ((.def_162 (and .def_161 .def_160))) (let ((.def_163 (not .def_162))) (let ((.def_164 (or A13 A13))) (let ((.def_165 (and A19 .def_8))) (let ((.def_166 (not .def_165))) (let ((.def_167 (and .def_166 .def_164))) (let ((.def_168 (not .def_167))) (let ((.def_169 (or .def_168 .def_163))) (let ((.def_170 (not .def_169))) (let ((.def_171 (or A3 A18))) (let ((.def_172 (not .def_171))) (let ((.def_173 (and A14 .def_6))) (let ((.def_174 (not .def_173))) (let ((.def_175 (or .def_174 .def_172))) (let ((.def_176 (and A6 A22))) (let ((.def_177 (and .def_70 A22))) (let ((.def_178 (and .def_177 .def_176))) (let ((.def_179 (not .def_178))) (let ((.def_180 (or .def_179 .def_175))) (let ((.def_181 (or .def_180 .def_170))) (let ((.def_182 (not .def_181))) (let ((.def_183 (not A8))) (let ((.def_184 (or .def_6 .def_183))) (let ((.def_185 (and A5 A9))) (let ((.def_186 (not .def_185))) (let ((.def_187 (or .def_186 .def_184))) (let ((.def_188 (not .def_187))) (let ((.def_189 (or A22 .def_41))) (let ((.def_190 (and A22 .def_63))) (let ((.def_191 (not .def_190))) (let ((.def_192 (or .def_191 .def_189))) (let ((.def_193 (and .def_192 .def_188))) (let ((.def_194 (not .def_193))) (let ((.def_195 (or .def_82 A4))) (let ((.def_196 (not .def_195))) (let ((.def_197 (and .def_82 .def_8))) (let ((.def_198 (not .def_197))) (let ((.def_199 (or .def_198 .def_196))) (let ((.def_200 (not .def_199))) (let ((.def_201 (= A19 .def_8))) (let ((.def_202 (not .def_201))) (let ((.def_203 (and .def_120 A15))) (let ((.def_204 (not .def_203))) (let ((.def_205 (and .def_204 .def_202))) (let ((.def_206 (not .def_205))) (let ((.def_207 (and .def_206 .def_200))) (let ((.def_208 (or .def_207 .def_194))) (let ((.def_209 (or .def_208 .def_182))) (let ((.def_210 (not .def_209))) (let ((.def_211 (or .def_210 .def_159))) (let ((.def_212 (and .def_211 .def_107))) (let ((.def_213 (not .def_212))) .def_213)))))))))))))))))))))))))))))))))))))))))))))))))))))))))))))))))))))))))))))))))))))))))))))))))))))))))))))))))))))))))))))))))))))))))))))))))))))))))))))))))))))))))))))))))))))))))))))))))))))))))))))))))))))))
(check-sat)
